10	5
0	4	1	2	4	3
1	0
2	1	9
3	1	8
4	1	5
5	1	7
6	1	9
7	1	6
8	1	10
9	1	11
10	1	11
11	0
0	0	0	0	0	0	0
1	4	0	1	1	0	4
2	3	0	4	0	0	0
3	6	2	2	0	1	2
4	8	2	3	1	5	5
5	4	2	0	4	4	5
6	1	1	4	5	2	4
7	4	0	1	5	3	2
8	5	5	2	0	2	3
9	9	0	0	5	3	4
10	4	4	5	4	4	1
11	0	0	0	0	0	0
6	7	8	8	11
